\ This file was automatically generated by Zimpl
\ param n := read "skojarzenie3.txt" as "1n" skip 1 use 1;
\ set V := {1..n};
\ set E := {read "skojarzenie3.txt" as "<1n,2n>" skip 3} + {read "skojarzenie3.txt" as "<2n,1n>" skip 3};
\ var x[E] binary;
\ subto r1: forall <v> in V do sum <v,i> in E do x[v,i] + sum <i,v> in E do x[i,v] <= 1;
\ maximize f: sum<i,j> in E do x[i,j];
\Problem name: skojarzenie.zpl
Maximize
 f:  + x#1#4 + x#1#5 + x#1#7 + x#2#4 + x#2#6 + x#3#5
  + x#3#7 + x#4#1 + x#4#2 + x#5#1 + x#5#3 + x#7#1
  + x#7#3 + x#6#2
Subject to
 r1_1:
  + x#5#1 + x#7#1 + x#4#1 + x#1#7 + x#1#5 + x#1#4
  <= 1
 r1_2:
  + x#6#2 + x#4#2 + x#2#6 + x#2#4 <= 1
 r1_3:
  + x#5#3 + x#7#3 + x#3#7 + x#3#5 <= 1
 r1_4:
  + x#1#4 + x#2#4 + x#4#2 + x#4#1 <= 1
 r1_5:
  + x#1#5 + x#3#5 + x#5#3 + x#5#1 <= 1
 r1_6:
  + x#2#6 + x#6#2 <= 1
 r1_7:
  + x#1#7 + x#3#7 + x#7#3 + x#7#1 <= 1
Bounds
 0 <= x#1#4 <= 1
 0 <= x#1#5 <= 1
 0 <= x#1#7 <= 1
 0 <= x#2#4 <= 1
 0 <= x#2#6 <= 1
 0 <= x#3#5 <= 1
 0 <= x#3#7 <= 1
 0 <= x#4#1 <= 1
 0 <= x#4#2 <= 1
 0 <= x#5#1 <= 1
 0 <= x#5#3 <= 1
 0 <= x#7#1 <= 1
 0 <= x#7#3 <= 1
 0 <= x#6#2 <= 1
General
 x#1#4
 x#1#5
 x#1#7
 x#2#4
 x#2#6
 x#3#5
 x#3#7
 x#4#1
 x#4#2
 x#5#1
 x#5#3
 x#7#1
 x#7#3
 x#6#2
End
